120
150
45
41
100
31
50
44
30
36
42
36
33
39
46
31
32
58
33
75
33
58
77
41
95
69
75
75
75
55
42
51
41
58
83
28
53
52
45
41
85
92
53
58
53
95
57
41
69
81
52
100
55
95
83
66
75
36
58
50
50
58
40
100
77
72
61
57
52
49
75
75
92
58
75
30
66
22
53
95
55
45
42
36
66
83
39
71
77
50
57
43
72
31
47
39
92
76
74
58
55
95
33
31
45
43
95
62
69
81
58
92
55
65
85
44
53
53
32
65
86
85
